45 5 3 1 70 
64 51 76 89 91 
69 98 88 53 55 
42 44 40 35 37 
61 81 90 
27 29 31 34 50 80 
14 47 16 15 10 13 17 
22 18 48 25 
72 39 36 38 41 43 68 
73 79 78 60 
65 59 75 97 58 77 
92 33 30 28 26 32 93 
63 85 84 56 
82 52 99 86 57 66 
12 11 9 87 74 
2 7 6 8 46 4 100 
83 23 21 19 49 20 24 
95 62 67 71 94 96 54 
